 vasp.5.4.4.18Apr17-6-g9f103f2a35 (build Sep 05 2023 16:06:33) complex

 executed on             LinuxIFC date 2023.11.30  12:04:23

 INCAR:
 POTCAR:    PAW_PBE Zn 06Sep2000
 POTCAR:    PAW_PBE O 08Apr2002

 POTCAR:    PAW_PBE Zn 06Sep2000

 POTCAR:    PAW_PBE O 08Apr2002

  PAW_PBE Zn 06Sep2000                  :
  PAW_PBE O 08Apr2002                   :

 POSCAR: Zn2 O2
  positions in direct lattice

 METAGGA = SCAN     LMAXTAU =  0    LMIXTAU =  F

 ion  position               nearest neighbor table
   1  0.667  0.333  0.501-   4 1.97   4 1.97   4 1.97   3 1.98
   2  0.333  0.667  0.001-   3 1.97   3 1.97   3 1.97   4 1.98
   3  0.667  0.333  0.880-   2 1.97   2 1.97   2 1.97   1 1.98
   4  0.333  0.667  0.380-   1 1.97   1 1.97   1 1.97   2 1.98

  LATTYP: Found a hexagonal cell.
 ALAT       =     3.2373509407
 C/A-ratio  =     1.6130661312

  Lattice vectors:

 A1 = (   3.2373509407,   0.0000000000,   0.0000000000)
 A2 = (  -1.6186754704,   2.8036281556,   0.0000000000)
 A3 = (   0.0000000000,   0.0000000000,   5.2220611572)

Analysis of symmetry for initial positions (statically):
 Subroutine PRICEL returns:
 Original cell was already a primitive cell.

 Routine SETGRP: Setting up the symmetry group for a
 hexagonal supercell.

 Subroutine GETGRP returns: Found 12 space group operations
 (whereof  6 operations were pure point group operations)
 out of a pool of 24 trial point group operations.

The static configuration has the point symmetry C_3v.
 The point group associated with its full space group is C_6v.

Analysis of symmetry for dynamics (positions and initial velocities):
 Subroutine PRICEL returns:
 Original cell was already a primitive cell.

 Routine SETGRP: Setting up the symmetry group for a
 hexagonal supercell.

 Subroutine GETGRP returns: Found 12 space group operations
 (whereof  6 operations were pure point group operations)
 out of a pool of 24 trial point group operations.

The dynamic configuration has the point symmetry C_3v.
 The point group associated with its full space group is C_6v.

 Subroutine INISYM returns: Found 12 space group operations
 (whereof  6 operations are pure point group operations),
 and found     1 'primitive' translations

 KPOINTS: Automatic mesh

Automatic generation of k-mesh.
Space group operators:
 irot       det(A)        alpha          n_x          n_y          n_z        tau_x        tau_y        tau_z
    1     1.000000     0.000000     1.000000     0.000000     0.000000     0.000000     0.000000     0.000000
    2     1.000000   120.000000     0.000000     0.000000    -1.000000     0.000000     0.000000     0.000000
    3     1.000000   120.000000     0.000000     0.000000     1.000000     0.000000     0.000000     0.000000
    4    -1.000000   180.000000     1.000000     0.000000     0.000000     0.000000     0.000000     0.000000
    5    -1.000000   180.000000     0.500000    -0.866025     0.000000     0.000000     0.000000     0.000000
    6    -1.000000   180.000000    -0.500000    -0.866025     0.000000     0.000000     0.000000     0.000000
    7     1.000000    60.000000     0.000000     0.000000    -1.000000     0.000000     0.000000     0.500000
    8     1.000000   180.000000     0.000000     0.000000     1.000000     0.000000     0.000000     0.500000
    9     1.000000    60.000000     0.000000     0.000000     1.000000     0.000000     0.000000     0.500000
   10    -1.000000   180.000000     0.866025    -0.500000     0.000000     0.000000     0.000000     0.500000
   11    -1.000000   180.000000     0.000000     1.000000     0.000000     0.000000     0.000000     0.500000
   12    -1.000000   180.000000     0.866025     0.500000     0.000000     0.000000     0.000000     0.500000

 Subroutine IBZKPT returns following result:

 Found    222 irreducible k-points:

 Following reciprocal coordinates:
            Coordinates               Weight
  0.000000  0.000000  0.000000      1.000000
  0.055556  0.000000  0.000000      6.000000
  0.111111  0.000000  0.000000      6.000000
  0.166667 -0.000000  0.000000      6.000000
  0.222222 -0.000000  0.000000      6.000000
  0.277778 -0.000000  0.000000      6.000000
  0.333333 -0.000000  0.000000      6.000000
  0.388889 -0.000000  0.000000      6.000000
  0.444444 -0.000000  0.000000      6.000000
  0.500000 -0.000000  0.000000      3.000000
  0.055556  0.055556  0.000000      6.000000
  0.111111  0.055556  0.000000     12.000000
  0.166667  0.055556  0.000000     12.000000
  0.222222  0.055556  0.000000     12.000000
  0.277778  0.055556  0.000000     12.000000
  0.333333  0.055556  0.000000     12.000000
  0.388889  0.055556  0.000000     12.000000
  0.444444  0.055556  0.000000     12.000000
  0.111111  0.111111  0.000000      6.000000
  0.166667  0.111111  0.000000     12.000000
  0.222222  0.111111  0.000000     12.000000
  0.277778  0.111111  0.000000     12.000000
  0.333333  0.111111  0.000000     12.000000
  0.388889  0.111111  0.000000     12.000000
  0.444444  0.111111  0.000000      6.000000
  0.166667  0.166667  0.000000      6.000000
  0.222222  0.166667  0.000000     12.000000
  0.277778  0.166667  0.000000     12.000000
  0.333333  0.166667  0.000000     12.000000
  0.388889  0.166667  0.000000     12.000000
  0.222222  0.222222  0.000000      6.000000
  0.277778  0.222222  0.000000     12.000000
  0.333333  0.222222  0.000000     12.000000
  0.388889  0.222222  0.000000      6.000000
  0.277778  0.277778  0.000000      6.000000
  0.333333  0.277778  0.000000     12.000000
  0.333333  0.333333  0.000000      2.000000
  0.000000  0.000000  0.100000      2.000000
  0.055556  0.000000  0.100000     12.000000
  0.111111  0.000000  0.100000     12.000000
  0.166667 -0.000000  0.100000     12.000000
  0.222222 -0.000000  0.100000     12.000000
  0.277778 -0.000000  0.100000     12.000000
  0.333333 -0.000000  0.100000     12.000000
  0.388889 -0.000000  0.100000     12.000000
  0.444444 -0.000000  0.100000     12.000000
  0.500000 -0.000000  0.100000      6.000000
  0.055556  0.055556  0.100000     12.000000
  0.111111  0.055556  0.100000     24.000000
  0.166667  0.055556  0.100000     24.000000
  0.222222  0.055556  0.100000     24.000000
  0.277778  0.055556  0.100000     24.000000
  0.333333  0.055556  0.100000     24.000000
  0.388889  0.055556  0.100000     24.000000
  0.444444  0.055556  0.100000     24.000000
  0.111111  0.111111  0.100000     12.000000
  0.166667  0.111111  0.100000     24.000000
  0.222222  0.111111  0.100000     24.000000
  0.277778  0.111111  0.100000     24.000000
  0.333333  0.111111  0.100000     24.000000
[...]
  0.333333  0.111111  0.500000     12.000000
  0.388889  0.111111  0.500000     12.000000
  0.444444  0.111111  0.500000      6.000000
  0.166667  0.166667  0.500000      6.000000
  0.222222  0.166667  0.500000     12.000000
  0.277778  0.166667  0.500000     12.000000
  0.333333  0.166667  0.500000     12.000000
  0.388889  0.166667  0.500000     12.000000
  0.222222  0.222222  0.500000      6.000000
  0.277778  0.222222  0.500000     12.000000
  0.333333  0.222222  0.500000     12.000000
  0.388889  0.222222  0.500000      6.000000
  0.277778  0.277778  0.500000      6.000000
  0.333333  0.277778  0.500000     12.000000
  0.333333  0.333333  0.500000      2.000000

 Following cartesian coordinates:
            Coordinates               Weight
  0.000000  0.000000  0.000000      1.000000
  0.017161  0.009908  0.000000      6.000000
  0.034322  0.019816  0.000000      6.000000
  0.051482  0.029723  0.000000      6.000000
  0.068643  0.039631  0.000000      6.000000
  0.085804  0.049539  0.000000      6.000000
  0.102965  0.059447  0.000000      6.000000
  0.120126  0.069355  0.000000      6.000000
  0.137286  0.079262  0.000000      6.000000
  0.154447  0.089170  0.000000      3.000000
  0.017161  0.029723  0.000000      6.000000
  0.034322  0.039631  0.000000     12.000000
  0.051482  0.049539  0.000000     12.000000
  0.068643  0.059447  0.000000     12.000000
  0.085804  0.069355  0.000000     12.000000
  0.102965  0.079262  0.000000     12.000000
  0.120126  0.089170  0.000000     12.000000
  0.137286  0.099078  0.000000     12.000000
  0.034322  0.059447  0.000000      6.000000
  0.051482  0.069355  0.000000     12.000000
  0.068643  0.079262  0.000000     12.000000
  0.085804  0.089170  0.000000     12.000000
  0.102965  0.099078  0.000000     12.000000
  0.120126  0.108986  0.000000     12.000000
  0.137286  0.118894  0.000000      6.000000
  0.051482  0.089170  0.000000      6.000000
  0.068643  0.099078  0.000000     12.000000
  0.085804  0.108986  0.000000     12.000000
  0.102965  0.118894  0.000000     12.000000
  0.120126  0.128801  0.000000     12.000000
  0.068643  0.118894  0.000000      6.000000
  0.085804  0.128801  0.000000     12.000000
  0.102965  0.138709  0.000000     12.000000
  0.120126  0.148617  0.000000      6.000000
  0.085804  0.148617  0.000000      6.000000
  0.102965  0.158525  0.000000     12.000000
  0.102965  0.178340  0.000000      2.000000
  0.000000  0.000000  0.019150      2.000000
  0.017161  0.009908  0.019150     12.000000
  0.034322  0.019816  0.019150     12.000000
  0.051482  0.029723  0.019150     12.000000
  0.068643  0.039631  0.019150     12.000000
  0.085804  0.049539  0.019150     12.000000
  0.102965  0.059447  0.019150     12.000000
  0.120126  0.069355  0.019150     12.000000
  0.137286  0.079262  0.019150     12.000000
  0.154447  0.089170  0.019150      6.000000
  0.017161  0.029723  0.019150     12.000000
  0.034322  0.039631  0.019150     24.000000
  0.051482  0.049539  0.019150     24.000000
  0.068643  0.059447  0.019150     24.000000
  0.085804  0.069355  0.019150     24.000000
  0.102965  0.079262  0.019150     24.000000
  0.120126  0.089170  0.019150     24.000000
  0.137286  0.099078  0.019150     24.000000
  0.034322  0.059447  0.019150     12.000000
  0.051482  0.069355  0.019150     24.000000
  0.068643  0.079262  0.019150     24.000000
  0.085804  0.089170  0.019150     24.000000
  0.102965  0.099078  0.019150     24.000000
[...]
  0.102965  0.099078  0.095748     12.000000
  0.120126  0.108986  0.095748     12.000000
  0.137286  0.118894  0.095748      6.000000
  0.051482  0.089170  0.095748      6.000000
  0.068643  0.099078  0.095748     12.000000
  0.085804  0.108986  0.095748     12.000000
  0.102965  0.118894  0.095748     12.000000
  0.120126  0.128801  0.095748     12.000000
  0.068643  0.118894  0.095748      6.000000
  0.085804  0.128801  0.095748     12.000000
  0.102965  0.138709  0.095748     12.000000
  0.120126  0.148617  0.095748      6.000000
  0.085804  0.148617  0.095748      6.000000
  0.102965  0.158525  0.095748     12.000000
  0.102965  0.178340  0.095748      2.000000

 TETIRR: Found   3295 inequivalent tetrahedra from    19440

 Subroutine IBZKPT_HF returns following result:

 Found   3240 k-points in 1st BZ
 the following   3240 k-points will be used (e.g. in the exchange kernel)
 Following reciprocal coordinates:   # in IRBZ
  0.000000  0.000000  0.000000    0.00030864   1 t-inv F
  0.055556  0.000000  0.000000    0.00030864   2 t-inv F
  0.111111  0.000000  0.000000    0.00030864   3 t-inv F
[...]
 k-point 17 :   0.3889 0.0556 0.0000  plane waves:     869
 k-point 18 :   0.4444 0.0556 0.0000  plane waves:     868
 k-point 19 :   0.1111 0.1111 0.0000  plane waves:     865
 k-point 20 :   0.1667 0.1111 0.0000  plane waves:     863
 k-point 21 :   0.2222 0.1111 0.0000  plane waves:     855
 k-point 22 :   0.2778 0.1111 0.0000  plane waves:     858
 k-point 23 :   0.3333 0.1111 0.0000  plane waves:     863
 k-point 24 :   0.3889 0.1111 0.0000  plane waves:     870
 k-point 25 :   0.4444 0.1111 0.0000  plane waves:     876
 k-point 26 :   0.1667 0.1667 0.0000  plane waves:     863
 k-point 27 :   0.2222 0.1667 0.0000  plane waves:     860
 k-point 28 :   0.2778 0.1667 0.0000  plane waves:     860
 k-point 29 :   0.3333 0.1667 0.0000  plane waves:     862
 k-point 30 :   0.3889 0.1667 0.0000  plane waves:     864
 k-point 31 :   0.2222 0.2222 0.0000  plane waves:     865
 k-point 32 :   0.2778 0.2222 0.0000  plane waves:     862
 k-point 33 :   0.3333 0.2222 0.0000  plane waves:     865
 k-point 34 :   0.3889 0.2222 0.0000  plane waves:     868
 k-point 35 :   0.2778 0.2778 0.0000  plane waves:     865
 k-point 36 :   0.3333 0.2778 0.0000  plane waves:     868
 k-point 37 :   0.3333 0.3333 0.0000  plane waves:     867
 k-point 38 :   0.0000 0.0000 0.1000  plane waves:     857
 k-point 39 :   0.0556 0.0000 0.1000  plane waves:     864
 k-point 40 :   0.1111 0.0000 0.1000  plane waves:     861
 k-point 41 :   0.1667-0.0000 0.1000  plane waves:     867
 k-point 42 :   0.2222-0.0000 0.1000  plane waves:     860
 k-point 43 :   0.2778-0.0000 0.1000  plane waves:     854
 k-point 44 :   0.3333-0.0000 0.1000  plane waves:     862
 k-point 45 :   0.3889-0.0000 0.1000  plane waves:     867
 k-point 46 :   0.4444-0.0000 0.1000  plane waves:     862
 k-point 47 :   0.5000-0.0000 0.1000  plane waves:     868
 k-point 48 :   0.0556 0.0556 0.1000  plane waves:     862
 k-point 49 :   0.1111 0.0556 0.1000  plane waves:     865
 k-point 50 :   0.1667 0.0556 0.1000  plane waves:     864
 k-point 51 :   0.2222 0.0556 0.1000  plane waves:     857
 k-point 52 :   0.2778 0.0556 0.1000  plane waves:     856
 k-point 53 :   0.3333 0.0556 0.1000  plane waves:     863
 k-point 54 :   0.3889 0.0556 0.1000  plane waves:     868
 k-point 55 :   0.4444 0.0556 0.1000  plane waves:     868
 k-point 56 :   0.1111 0.1111 0.1000  plane waves:     863
 k-point 57 :   0.1667 0.1111 0.1000  plane waves:     860
 k-point 58 :   0.2222 0.1111 0.1000  plane waves:     856
 k-point 59 :   0.2778 0.1111 0.1000  plane waves:     861
 k-point 60 :   0.3333 0.1111 0.1000  plane waves:     870
[...]
 k-point 85 :   0.0556 0.0556 0.2000  plane waves:     867
 k-point 86 :   0.1111 0.0556 0.2000  plane waves:     866
 k-point 87 :   0.1667 0.0556 0.2000  plane waves:     862
 k-point 88 :   0.2222 0.0556 0.2000  plane waves:     859
 k-point 89 :   0.2778 0.0556 0.2000  plane waves:     862
 k-point 90 :   0.3333 0.0556 0.2000  plane waves:     865
 k-point 91 :   0.3889 0.0556 0.2000  plane waves:     863
 k-point 92 :   0.4444 0.0556 0.2000  plane waves:     866
 k-point 93 :   0.1111 0.1111 0.2000  plane waves:     858
 k-point 94 :   0.1667 0.1111 0.2000  plane waves:     856
 k-point 95 :   0.2222 0.1111 0.2000  plane waves:     859
 k-point 96 :   0.2778 0.1111 0.2000  plane waves:     857
 k-point 97 :   0.3333 0.1111 0.2000  plane waves:     864
 k-point 98 :   0.3889 0.1111 0.2000  plane waves:     863
 k-point 99 :   0.4444 0.1111 0.2000  plane waves:     863
 k-point ** :   0.1667 0.1667 0.2000  plane waves:     860
 k-point ** :   0.2222 0.1667 0.2000  plane waves:     861
 k-point ** :   0.2778 0.1667 0.2000  plane waves:     858
 k-point ** :   0.3333 0.1667 0.2000  plane waves:     858
 k-point ** :   0.3889 0.1667 0.2000  plane waves:     855
 k-point ** :   0.2222 0.2222 0.2000  plane waves:     868
 k-point ** :   0.2778 0.2222 0.2000  plane waves:     861
 k-point ** :   0.3333 0.2222 0.2000  plane waves:     860
 k-point ** :   0.3889 0.2222 0.2000  plane waves:     858
 k-point ** :   0.2778 0.2778 0.2000  plane waves:     862
 k-point ** :   0.3333 0.2778 0.2000  plane waves:     856
 k-point ** :   0.3333 0.3333 0.2000  plane waves:     858
 k-point ** :   0.0000 0.0000 0.3000  plane waves:     845
 k-point ** :   0.0556 0.0000 0.3000  plane waves:     858
 k-point ** :   0.1111 0.0000 0.3000  plane waves:     873
 k-point ** :   0.1667-0.0000 0.3000  plane waves:     868
 k-point ** :   0.2222-0.0000 0.3000  plane waves:     867
 k-point ** :   0.2778-0.0000 0.3000  plane waves:     861
 k-point ** :   0.3333-0.0000 0.3000  plane waves:     865
 k-point ** :   0.3889-0.0000 0.3000  plane waves:     865
 k-point ** :   0.4444-0.0000 0.3000  plane waves:     870
 k-point ** :   0.5000-0.0000 0.3000  plane waves:     872
 k-point ** :   0.0556 0.0556 0.3000  plane waves:     866
 k-point ** :   0.1111 0.0556 0.3000  plane waves:     866
 k-point ** :   0.1667 0.0556 0.3000  plane waves:     864
 k-point ** :   0.2222 0.0556 0.3000  plane waves:     861
 k-point ** :   0.2778 0.0556 0.3000  plane waves:     862
 k-point ** :   0.3333 0.0556 0.3000  plane waves:     863
 k-point ** :   0.3889 0.0556 0.3000  plane waves:     864
 k-point ** :   0.4444 0.0556 0.3000  plane waves:     866
 k-point ** :   0.1111 0.1111 0.3000  plane waves:     869
 k-point ** :   0.1667 0.1111 0.3000  plane waves:     861
 k-point ** :   0.2222 0.1111 0.3000  plane waves:     863
 k-point ** :   0.2778 0.1111 0.3000  plane waves:     863
 k-point ** :   0.3333 0.1111 0.3000  plane waves:     857
 k-point ** :   0.3889 0.1111 0.3000  plane waves:     858
 k-point ** :   0.4444 0.1111 0.3000  plane waves:     858
 k-point ** :   0.1667 0.1667 0.3000  plane waves:     860
 k-point ** :   0.2222 0.1667 0.3000  plane waves:     864
 k-point ** :   0.2778 0.1667 0.3000  plane waves:     855
 k-point ** :   0.3333 0.1667 0.3000  plane waves:     858
 k-point ** :   0.3889 0.1667 0.3000  plane waves:     857
 k-point ** :   0.2222 0.2222 0.3000  plane waves:     853
 k-point ** :   0.2778 0.2222 0.3000  plane waves:     854
 k-point ** :   0.3333 0.2222 0.3000  plane waves:     853
 k-point ** :   0.3889 0.2222 0.3000  plane waves:     850
 k-point ** :   0.2778 0.2778 0.3000  plane waves:     848
 k-point ** :   0.3333 0.2778 0.3000  plane waves:     854
 k-point ** :   0.3333 0.3333 0.3000  plane waves:     861
 k-point ** :   0.0000 0.0000 0.4000  plane waves:     845
 k-point ** :   0.0556 0.0000 0.4000  plane waves:     856
 k-point ** :   0.1111 0.0000 0.4000  plane waves:     865
 k-point ** :   0.1667-0.0000 0.4000  plane waves:     863
 k-point ** :   0.2222-0.0000 0.4000  plane waves:     864
 k-point ** :   0.2778-0.0000 0.4000  plane waves:     864
 k-point ** :   0.3333-0.0000 0.4000  plane waves:     868
 k-point ** :   0.3889-0.0000 0.4000  plane waves:     862
 k-point ** :   0.4444-0.0000 0.4000  plane waves:     861
 k-point ** :   0.5000-0.0000 0.4000  plane waves:     862
 k-point ** :   0.0556 0.0556 0.4000  plane waves:     857
[...]
 k-point ** :   0.3333 0.1111 0.5000  plane waves:     854
 k-point ** :   0.3889 0.1111 0.5000  plane waves:     854
 k-point ** :   0.4444 0.1111 0.5000  plane waves:     854
 k-point ** :   0.1667 0.1667 0.5000  plane waves:     862
 k-point ** :   0.2222 0.1667 0.5000  plane waves:     856
 k-point ** :   0.2778 0.1667 0.5000  plane waves:     854
 k-point ** :   0.3333 0.1667 0.5000  plane waves:     850
 k-point ** :   0.3889 0.1667 0.5000  plane waves:     854
 k-point ** :   0.2222 0.2222 0.5000  plane waves:     850
 k-point ** :   0.2778 0.2222 0.5000  plane waves:     846
 k-point ** :   0.3333 0.2222 0.5000  plane waves:     852
 k-point ** :   0.3889 0.2222 0.5000  plane waves:     854
 k-point ** :   0.2778 0.2778 0.5000  plane waves:     842
 k-point ** :   0.3333 0.2778 0.5000  plane waves:     856
 k-point ** :   0.3333 0.3333 0.5000  plane waves:     852

 maximum and minimum number of plane-waves per node :       229      200

 maximum number of plane-waves:       878
 maximum index in each direction:
   IXMAX=    5   IYMAX=    5   IZMAX=    8
   IXMIN=   -5   IYMIN=   -5   IZMIN=   -9

 parallel 3D FFT for wavefunctions:
    minimum data exchange during FFTs selected (reduces bandwidth)
 parallel 3D FFT for charge:
    minimum data exchange during FFTs selected (reduces bandwidth)

 FFT grid for exact exchange (Hartree Fock)
  NGX = 16; NGY = 16; NGZ = 28

 Radii for the augmentation spheres in the non-local exchange
 for species   1 augmentation radius   1.190 (default was   0.952)
       energy cutoff for augmentation   1600.0
 for species   2 augmentation radius   0.902 (default was   0.722)
       energy cutoff for augmentation   1600.0

 real space projection operators:
  max/ min on nodes  :        123.80        118.09

 Maximum index for augmentation-charges in exchange          262
  SETUP_FOCK is finished

 initial charge density was supplied:
 charge density of overlapping atoms calculated
 number of electron      36.0000000 magnetization
 keeping initial charge density in first step

 Maximum index for augmentation-charges          731 (set IRDMAX)

--------------------------------------- Iteration      1(   1)  ---------------------------------------

 BZINTS: Fermi energy: 13.565821; 36.000000 electrons
         Band energy: -74.381492;  BLOECHL correction: -0.203617

 eigenvalue-minimisations  : 11180
 total energy-change (2. order) :-0.7495085E+03  (-0.1738031E+04)
 number of electron      36.0000000 magnetization
 augmentation part       36.0000000 magnetization

 Free energy of the ion-electron system (eV)
  alpha Z        PSCENC =       235.54362293
  Ewald energy   TEWEN  =     -2966.99525423
  -Hartree energ DENC   =     -1284.76557039
  -exchange      EXHF   =         0.00000000
  -V(xc)+E(xc)   XCENC  =       200.64671718
  PAW double counting   =      3569.59137098    -4780.41645376
  entropy T*S    EENTRO =         0.00000000
  eigenvalues    EBANDS =       -74.38149168
  atomic energy  EATOM  =      4351.26853190
  Solvation  Ediel_sol  =         0.00000000
  free energy    TOTEN  =      -749.50852707 eV

  energy without entropy =     -749.50852707  energy(sigma->0) =     -749.50852707
  exchange ACFDT corr.  =         0.00000000  see jH, gK, PRB 81, 115126

[...]

 BZINTS: Fermi energy: -0.966286; 36.000000 electrons
         Band energy:-318.641106;  BLOECHL correction:  0.000000

[...]

 BZINTS: Fermi energy:-10.228304; 36.000000 electrons
         Band energy:-595.036654;  BLOECHL correction:  0.000000

[...]

 eigenvalue-minimisations  : 11600
 total energy-change (2. order) : 0.1793855E+02  (-0.1089232E+01)
 number of electron      36.0000046 magnetization
 augmentation part       18.6938681 magnetization

[...]

 eigenvalue-minimisations  : 15720
 total energy-change (2. order) : 0.2681018E-01  (-0.8544474E-02)
 number of electron      36.0000063 magnetization
 augmentation part       18.2852059 magnetization

[...]

--------------------------------------- Iteration      1(  24)  ---------------------------------------

 BZINTS: Fermi energy: -4.561277; 36.000000 electrons
         Band energy:-417.673454;  BLOECHL correction:  0.000000

 eigenvalue-minimisations  :  5570
 total energy-change (2. order) :-0.6671253E-06  (-0.8085864E-09)
 number of electron      36.0000068 magnetization
 augmentation part       18.2989273 magnetization

 Free energy of the ion-electron system (eV)
  alpha Z        PSCENC =       235.54362293
  Ewald energy   TEWEN  =     -2966.99525423
  -Hartree energ DENC   =     -1412.61179993
  -exchange      EXHF   =       124.73316100
  -V(xc)+E(xc)   XCENC  =       212.88996064
  PAW double counting   =      4327.35087099    -5580.28677224
  entropy T*S    EENTRO =         0.00000000
  eigenvalues    EBANDS =      -417.67345373
  atomic energy  EATOM  =      4351.26853190
  Solvation  Ediel_sol  =         0.00000000
  free energy    TOTEN  =     -1125.78113267 eV

  energy without entropy =    -1125.78113267  energy(sigma->0) =    -1125.78113267
  exchange ACFDT corr.  =        -0.00000000  see jH, gK, PRB 81, 115126

 average (electrostatic) potential at core
  the test charge radii are     0.9521  0.7215
  (the norm of the test charge is              1.0000)
       1 -38.7752       2 -38.7752       3 -74.3062       4 -74.3062

 E-fermi :  -4.5613     XC(G=0): -11.3336     alpha+bet : -7.9369

 k-point     1 :       0.0000    0.0000    0.0000
  band No.  band energies     occupation
      1     -24.6846      2.00000
      2     -24.1128      2.00000
      3     -12.6216      2.00000
      4     -12.6215      2.00000
      5     -12.6134      2.00000
      6     -12.4834      2.00000
      7     -12.4833      2.00000
      8     -12.0019      2.00000
      9     -12.0018      2.00000
     10     -11.8773      2.00000
     11     -11.8772      2.00000
     12     -11.7279      2.00000
     13      -9.1311      2.00000
     14      -5.2718      2.00000
     15      -5.2718      2.00000
     16      -4.5936      2.00000
     17      -4.5737      2.00000
     18      -4.5737      2.00000
     19       0.6000      0.00000
     20       5.5221      0.00000
     21       8.3300      0.00000
     22      13.5872      0.00000
     23      13.5875      0.00000
     24      14.7979      0.00000
     25      15.0205      0.00000

[...]

 k-point   222 :       0.3333    0.3333    0.5000
  band No.  band energies     occupation
      1     -24.0013      2.00000
      2     -24.0013      2.00000
      3     -12.3743      2.00000
      4     -12.3743      2.00000
      5     -12.3296      2.00000
      6     -12.3296      2.00000
      7     -12.0186      2.00000
      8     -12.0186      2.00000
      9     -11.9820      2.00000
     10     -11.9820      2.00000
     11     -11.5767      2.00000
     12     -11.5767      2.00000
     13      -8.2991      2.00000
     14      -8.2991      2.00000
     15      -7.1083      2.00000
     16      -7.1083      2.00000
     17      -5.5974      2.00000
     18      -5.5974      2.00000
     19       7.9873      0.00000
     20       7.9873      0.00000
     21       8.3720      0.00000
     22       8.3720      0.00000
     23       9.2377      0.00000
     24       9.2377      0.00000
     25      16.2618      0.00000

 soft charge-density along one line, spin component           1
         0         1         2         3         4         5         6         7         8         9
 total charge-density along one line

------------------------ aborting loop because EDIFF is reached ----------------------------------------

 VOLUME and BASIS-vectors are now :
  energy-cutoff  :      400.00
  volume of cell :       47.40
      direct lattice vectors                 reciprocal lattice vectors
     3.237350941  0.000000000  0.000000000     0.308894531  0.178340341  0.000000000
    -1.618675470  2.803628156  0.000000000     0.000000000  0.356680681  0.000000000
     0.000000000  0.000000000  5.222061157     0.000000000  0.000000000  0.191495268

  length of vectors
     3.237350941  3.237350941  5.222061157     0.356680681  0.356680681  0.191495268

 FORCES acting on ions
    electron-ion (+dipol)            ewald-force                    non-local-force                 convergence-correction
   -.275E-04 0.176E-04 -.130E+01   -.143E-04 0.826E-05 0.129E+01   0.173E-16 0.139E-16 -.702E-01   -.125E-07 -.346E-07 -.174E-04
   0.281E-04 -.161E-04 -.130E+01   0.143E-04 -.826E-05 0.129E+01   -.278E-16 -.139E-16 -.702E-01   0.677E-08 0.483E-07 -.197E-04
   -.281E-04 -.246E-04 0.121E+01   -.133E-04 0.766E-05 -.129E+01   0.173E-17 0.000E+00 0.857E-01   -.339E-08 -.436E-08 -.567E-05
   0.201E-04 -.528E-04 0.121E+01   0.133E-04 -.766E-05 -.129E+01   -.867E-18 0.000E+00 0.857E-01   0.196E-07 0.302E-07 -.444E-05
   -.782E-05 -.762E-04 -.146E+00   0.124E-13 -.702E-14 0.000E+00   -.954E-17 0.000E+00 0.310E-01   0.105E-07 0.395E-07 -.473E-04

 POSITION                                       TOTAL-FORCE (eV/Angst)
      1.61868      0.93454      2.61412        -0.000000      0.000000     -0.042317
     -0.00000      1.86909      0.00309         0.000000      0.000000     -0.042317
      1.61868      0.93454      4.59394         0.000000     -0.000000      0.042317
     -0.00000      1.86909      1.98291         0.000000      0.000000      0.042317
    total drift:                               -0.000008     -0.000076     -0.072865

  FREE ENERGIE OF THE ION-ELECTRON SYSTEM (eV)
  free  energy   TOTEN  =     -1125.78113267 eV

  energy  without entropy=    -1125.78113267  energy(sigma->0) =    -1125.78113267

 writing wavefunctions
 BZINTS: Fermi energy: -4.561277; 36.000000 electrons
         Band energy:-417.673454;  BLOECHL correction:  0.000000