 vasp.5.4.1 24Jun15 (build Dec 08 2018 00:28:02) complex

 executed on          pkvasp5.4.1 date 2023.10.02  08:32:37

 INCAR:
 POTCAR:    PAW_PBE Mg 13Apr2007
 POTCAR:    PAW_PBE O 08Apr2002

 POTCAR:    PAW_PBE Mg 13Apr2007

 POTCAR:    PAW_PBE O 08Apr2002

  PAW_PBE Mg 13Apr2007                  :
  PAW_PBE O 08Apr2002                   :

 POSCAR: xyz: Mg1O1
  positions in direct lattice
 exchange correlation table for  LEXCH =        8
   RHO(1)=    0.500       N(1)  =     2000
   RHO(2)=  100.500       N(2)  =     4000

 ion  position               nearest neighbor table
   1  0.000  0.000  0.000-   2 2.11   2 2.11   2 2.11   2 2.11   2 2.11   2 2.11
   2  0.500  0.500  0.500-   1 2.11   1 2.11   1 2.11   1 2.11   1 2.11   1 2.11

  LATTYP: Found a face centered cubic cell.
 ALAT       =     4.2127000000

  Lattice vectors:

 A1 = (   2.1063500000,   2.1063500000,   0.0000000000)
 A2 = (   0.0000000000,   2.1063500000,   2.1063500000)
 A3 = (   2.1063500000,   0.0000000000,   2.1063500000)

Analysis of symmetry for initial positions (statically):
 Subroutine PRICEL returns:
 Original cell was already a primitive cell.

 Routine SETGRP: Setting up the symmetry group for a
 face centered cubic supercell.

 Subroutine GETGRP returns: Found 48 space group operations
 (whereof 48 operations were pure point group operations)
 out of a pool of 48 trial point group operations.

The static configuration has the point symmetry O_h .

Analysis of symmetry for dynamics (positions and initial velocities):
 Subroutine PRICEL returns:
 Original cell was already a primitive cell.

 Routine SETGRP: Setting up the symmetry group for a
 face centered cubic supercell.

 Subroutine GETGRP returns: Found 48 space group operations
 (whereof 48 operations were pure point group operations)
 out of a pool of 48 trial point group operations.

The dynamic configuration has the point symmetry O_h .

 Subroutine INISYM returns: Found 48 space group operations
 (whereof 48 operations are pure point group operations),
 and found     1 'primitive' translations

 KPOINTS: Automatic mesh

Automatic generation of k-mesh.
Space group operators:
 irot       det(A)        alpha          n_x          n_y          n_z        tau_x        tau_y        tau_z
    1     1.000000     0.000001     1.000000     0.000000     0.000000     0.000000     0.000000     0.000000
    2    -1.000000     0.000001     1.000000     0.000000     0.000000     0.000000     0.000000     0.000000
    3     1.000000   120.000000    -0.577350    -0.577350    -0.577350     0.000000     0.000000     0.000000
    4    -1.000000   120.000000    -0.577350    -0.577350    -0.577350     0.000000     0.000000     0.000000
    5     1.000000   120.000000     0.577350     0.577350     0.577350     0.000000     0.000000     0.000000
    6    -1.000000   120.000000     0.577350     0.577350     0.577350     0.000000     0.000000     0.000000
    7     1.000000    90.000000     0.000000    -1.000000     0.000000     0.000000     0.000000     0.000000
    8    -1.000000    90.000000     0.000000    -1.000000     0.000000     0.000000     0.000000     0.000000
    9     1.000000   180.000000     0.707107     0.707107     0.000000     0.000000     0.000000     0.000000
   10    -1.000000   180.000000     0.707107     0.707107     0.000000     0.000000     0.000000     0.000000
   11     1.000000    90.000000     1.000000     0.000000     0.000000     0.000000     0.000000     0.000000
   12    -1.000000    90.000000     1.000000     0.000000     0.000000     0.000000     0.000000     0.000000
   13     1.000000   180.000000     0.000000     1.000000     0.000000     0.000000     0.000000     0.000000
   14    -1.000000   180.000000     0.000000     1.000000     0.000000     0.000000     0.000000     0.000000
   15     1.000000   120.000000     0.577350     0.577350    -0.577350     0.000000     0.000000     0.000000
   16    -1.000000   120.000000     0.577350     0.577350    -0.577350     0.000000     0.000000     0.000000
   17     1.000000   120.000000     0.577350    -0.577350    -0.577350     0.000000     0.000000     0.000000
   18    -1.000000   120.000000     0.577350    -0.577350    -0.577350     0.000000     0.000000     0.000000
   19     1.000000    90.000000     0.000000     1.000000     0.000000     0.000000     0.000000     0.000000
   20    -1.000000    90.000000     0.000000     1.000000     0.000000     0.000000     0.000000     0.000000
   21     1.000000    90.000000     0.000000     0.000000    -1.000000     0.000000     0.000000     0.000000
   22    -1.000000    90.000000     0.000000     0.000000    -1.000000     0.000000     0.000000     0.000000
   23     1.000000   180.000000     0.000000     0.707107     0.707107     0.000000     0.000000     0.000000
   24    -1.000000   180.000000     0.000000     0.707107     0.707107     0.000000     0.000000     0.000000
   25     1.000000   120.000000    -0.577350     0.577350     0.577350     0.000000     0.000000     0.000000
   26    -1.000000   120.000000    -0.577350     0.577350     0.577350     0.000000     0.000000     0.000000
   27     1.000000   120.000000    -0.577350     0.577350    -0.577350     0.000000     0.000000     0.000000
   28    -1.000000   120.000000    -0.577350     0.577350    -0.577350     0.000000     0.000000     0.000000
   29     1.000000   180.000000     0.000000     0.000000     1.000000     0.000000     0.000000     0.000000
   30    -1.000000   180.000000     0.000000     0.000000     1.000000     0.000000     0.000000     0.000000
   31     1.000000    90.000000    -1.000000     0.000000     0.000000     0.000000     0.000000     0.000000
   32    -1.000000    90.000000    -1.000000     0.000000     0.000000     0.000000     0.000000     0.000000
   33     1.000000   180.000000     0.707107     0.000000     0.707107     0.000000     0.000000     0.000000
   34    -1.000000   180.000000     0.707107     0.000000     0.707107     0.000000     0.000000     0.000000
   35     1.000000    90.000000     0.000000     0.000000     1.000000     0.000000     0.000000     0.000000
   36    -1.000000    90.000000     0.000000     0.000000     1.000000     0.000000     0.000000     0.000000
   37     1.000000   120.000000    -0.577350    -0.577350     0.577350     0.000000     0.000000     0.000000
   38    -1.000000   120.000000    -0.577350    -0.577350     0.577350     0.000000     0.000000     0.000000
   39     1.000000   180.000000     1.000000     0.000000     0.000000     0.000000     0.000000     0.000000
   40    -1.000000   180.000000     1.000000     0.000000     0.000000     0.000000     0.000000     0.000000
   41     1.000000   120.000000     0.577350    -0.577350     0.577350     0.000000     0.000000     0.000000
   42    -1.000000   120.000000     0.577350    -0.577350     0.577350     0.000000     0.000000     0.000000
   43     1.000000   180.000000     0.707107    -0.707107     0.000000     0.000000     0.000000     0.000000
   44    -1.000000   180.000000     0.707107    -0.707107     0.000000     0.000000     0.000000     0.000000
   45     1.000000   180.000000     0.707107     0.000000    -0.707107     0.000000     0.000000     0.000000
   46    -1.000000   180.000000     0.707107     0.000000    -0.707107     0.000000     0.000000     0.000000
   47     1.000000   180.000000     0.000000    -0.707107     0.707107     0.000000     0.000000     0.000000
   48    -1.000000   180.000000     0.000000    -0.707107     0.707107     0.000000     0.000000     0.000000

 Subroutine IBZKPT returns following result:

 Found    120 irreducible k-points:

 Following reciprocal coordinates:
            Coordinates               Weight
  0.000000  0.000000  0.000000      1.000000
  0.066667  0.000000  0.000000      8.000000
  0.133333  0.000000  0.000000      8.000000
  0.200000  0.000000  0.000000      8.000000
  0.266667  0.000000  0.000000      8.000000
  0.333333  0.000000  0.000000      8.000000
  0.400000  0.000000  0.000000      8.000000
  0.466667  0.000000  0.000000      8.000000
  0.066667  0.066667  0.000000      6.000000
  0.133333  0.066667  0.000000     24.000000
  0.200000  0.066667  0.000000     24.000000
  0.266667  0.066667  0.000000     24.000000
  0.333333  0.066667  0.000000     24.000000
  0.400000  0.066667  0.000000     24.000000
  0.466667  0.066667  0.000000     24.000000
 -0.466667  0.066667  0.000000     24.000000
 -0.400000  0.066667  0.000000     24.000000
 -0.333333  0.066667  0.000000     24.000000
 -0.266667  0.066667  0.000000     24.000000
 -0.200000  0.066667  0.000000     24.000000
 -0.133333  0.066667  0.000000     24.000000
 -0.066667  0.066667  0.000000     12.000000
  0.133333  0.133333  0.000000      6.000000
  0.200000  0.133333  0.000000     24.000000
  0.266667  0.133333  0.000000     24.000000
  0.333333  0.133333  0.000000     24.000000
  0.400000  0.133333  0.000000     24.000000
  0.466667  0.133333  0.000000     24.000000
 -0.466667  0.133333  0.000000     24.000000
 -0.400000  0.133333  0.000000     24.000000
 -0.333333  0.133333  0.000000     24.000000
 -0.266667  0.133333  0.000000     24.000000
 -0.200000  0.133333  0.000000     24.000000
 -0.133333  0.133333  0.000000     12.000000
  0.200000  0.200000  0.000000      6.000000
  0.266667  0.200000  0.000000     24.000000
  0.333333  0.200000  0.000000     24.000000
  0.400000  0.200000  0.000000     24.000000
  0.466667  0.200000  0.000000     24.000000
 -0.466667  0.200000  0.000000     24.000000
 -0.400000  0.200000  0.000000     24.000000
 -0.333333  0.200000  0.000000     24.000000
 -0.266667  0.200000  0.000000     24.000000
 -0.200000  0.200000  0.000000     12.000000
  0.266667  0.266667  0.000000      6.000000
  0.333333  0.266667  0.000000     24.000000
  0.400000  0.266667  0.000000     24.000000
  0.466667  0.266667  0.000000     24.000000
 -0.466667  0.266667  0.000000     24.000000
 -0.400000  0.266667  0.000000     24.000000
 -0.333333  0.266667  0.000000     24.000000
 -0.266667  0.266667  0.000000     12.000000
  0.333333  0.333333  0.000000      6.000000
  0.400000  0.333333  0.000000     24.000000
  0.466667  0.333333  0.000000     24.000000
 -0.466667  0.333333  0.000000     24.000000
 -0.400000  0.333333  0.000000     24.000000
 -0.333333  0.333333  0.000000     12.000000
  0.400000  0.400000  0.000000      6.000000
  0.466667  0.400000  0.000000     24.000000
[...]
 -0.466667  0.333333  0.133333     48.000000
 -0.400000  0.333333  0.133333     48.000000
 -0.333333  0.333333  0.133333     48.000000
 -0.266667  0.333333  0.133333     48.000000
 -0.200000  0.333333  0.133333     24.000000
 -0.466667  0.400000  0.133333     24.000000
 -0.400000  0.400000  0.133333     48.000000
 -0.333333  0.400000  0.133333     48.000000
 -0.266667  0.400000  0.133333     24.000000
 -0.400000  0.466667  0.133333     24.000000
 -0.333333  0.466667  0.133333     24.000000
 -0.400000  0.400000  0.200000     24.000000
 -0.333333  0.400000  0.200000     48.000000
 -0.333333  0.466667  0.200000     24.000000
 -0.266667  0.466667  0.200000     24.000000

 Following cartesian coordinates:
            Coordinates               Weight
[...]
   0.20000000  0.00000000  0.00000000       0.002
   0.26666667  0.00000000  0.00000000       0.002
   0.33333333  0.00000000  0.00000000       0.002
   0.40000000  0.00000000  0.00000000       0.002
   0.46666667  0.00000000  0.00000000       0.002
   0.06666667  0.06666667  0.00000000       0.002
   0.13333333  0.06666667  0.00000000       0.007
   0.20000000  0.06666667  0.00000000       0.007
   0.26666667  0.06666667  0.00000000       0.007
   0.33333333  0.06666667  0.00000000       0.007
   0.40000000  0.06666667  0.00000000       0.007
   0.46666667  0.06666667  0.00000000       0.007
  -0.46666667  0.06666667  0.00000000       0.007
  -0.40000000  0.06666667  0.00000000       0.007
  -0.33333333  0.06666667  0.00000000       0.007
  -0.26666667  0.06666667  0.00000000       0.007
  -0.20000000  0.06666667  0.00000000       0.007
  -0.13333333  0.06666667  0.00000000       0.007
  -0.06666667  0.06666667  0.00000000       0.004
   0.13333333  0.13333333  0.00000000       0.002
   0.20000000  0.13333333  0.00000000       0.007
   0.26666667  0.13333333  0.00000000       0.007
   0.33333333  0.13333333  0.00000000       0.007
   0.40000000  0.13333333  0.00000000       0.007
   0.46666667  0.13333333  0.00000000       0.007
  -0.46666667  0.13333333  0.00000000       0.007
  -0.40000000  0.13333333  0.00000000       0.007
  -0.33333333  0.13333333  0.00000000       0.007
  -0.26666667  0.13333333  0.00000000       0.007
  -0.20000000  0.13333333  0.00000000       0.007
  -0.13333333  0.13333333  0.00000000       0.004
   0.20000000  0.20000000  0.00000000       0.002
   0.26666667  0.20000000  0.00000000       0.007
   0.33333333  0.20000000  0.00000000       0.007
   0.40000000  0.20000000  0.00000000       0.007
   0.46666667  0.20000000  0.00000000       0.007
  -0.46666667  0.20000000  0.00000000       0.007
  -0.40000000  0.20000000  0.00000000       0.007
  -0.33333333  0.20000000  0.00000000       0.007
  -0.26666667  0.20000000  0.00000000       0.007
  -0.20000000  0.20000000  0.00000000       0.004
   0.26666667  0.26666667  0.00000000       0.002
   0.33333333  0.26666667  0.00000000       0.007
   0.40000000  0.26666667  0.00000000       0.007
   0.46666667  0.26666667  0.00000000       0.007
  -0.46666667  0.26666667  0.00000000       0.007
  -0.40000000  0.26666667  0.00000000       0.007
  -0.33333333  0.26666667  0.00000000       0.007
  -0.26666667  0.26666667  0.00000000       0.004
   0.33333333  0.33333333  0.00000000       0.002
   0.40000000  0.33333333  0.00000000       0.007
   0.46666667  0.33333333  0.00000000       0.007
  -0.46666667  0.33333333  0.00000000       0.007
  -0.40000000  0.33333333  0.00000000       0.007
  -0.33333333  0.33333333  0.00000000       0.004
   0.40000000  0.40000000  0.00000000       0.002
   0.46666667  0.40000000  0.00000000       0.007
[...]
  -0.46666667  0.33333333  0.13333333       0.014
  -0.40000000  0.33333333  0.13333333       0.014
  -0.33333333  0.33333333  0.13333333       0.014
  -0.26666667  0.33333333  0.13333333       0.014
  -0.20000000  0.33333333  0.13333333       0.007
  -0.46666667  0.40000000  0.13333333       0.007
  -0.40000000  0.40000000  0.13333333       0.014
  -0.33333333  0.40000000  0.13333333       0.014
  -0.26666667  0.40000000  0.13333333       0.007
  -0.40000000  0.46666667  0.13333333       0.007
  -0.33333333  0.46666667  0.13333333       0.007
  -0.40000000  0.40000000  0.20000000       0.007
  -0.33333333  0.40000000  0.20000000       0.014
  -0.33333333  0.46666667  0.20000000       0.007
  -0.26666667  0.46666667  0.20000000       0.007

 position of ions in fractional coordinates (direct lattice)
   0.00000000  0.00000000  0.00000000
   0.50000000  0.50000000  0.50000000

 position of ions in cartesian coordinates  (Angst):
   0.00000000  0.00000000  0.00000000
   2.10635000  2.10635000  2.10635000

 k-point  1 :   0.0000 0.0000 0.0000  plane waves:     331
 k-point  2 :   0.0667 0.0000 0.0000  plane waves:     332
 k-point  3 :   0.1333 0.0000 0.0000  plane waves:     335
 k-point  4 :   0.2000 0.0000 0.0000  plane waves:     332
 k-point  5 :   0.2667 0.0000 0.0000  plane waves:     338
 k-point  6 :   0.3333 0.0000 0.0000  plane waves:     344
 k-point  7 :   0.4000 0.0000 0.0000  plane waves:     344
 k-point  8 :   0.4667 0.0000 0.0000  plane waves:     341
 k-point  9 :   0.0667 0.0667 0.0000  plane waves:     335
 k-point 10 :   0.1333 0.0667 0.0000  plane waves:     334
 k-point 11 :   0.2000 0.0667 0.0000  plane waves:     331
 k-point 12 :   0.2667 0.0667 0.0000  plane waves:     338
 k-point 13 :   0.3333 0.0667 0.0000  plane waves:     340
 k-point 14 :   0.4000 0.0667 0.0000  plane waves:     340
 k-point 15 :   0.4667 0.0667 0.0000  plane waves:     342
 k-point 16 :  -0.4667 0.0667 0.0000  plane waves:     339
 k-point 17 :  -0.4000 0.0667 0.0000  plane waves:     344
 k-point 18 :  -0.3333 0.0667 0.0000  plane waves:     342
 k-point 19 :  -0.2667 0.0667 0.0000  plane waves:     340
 k-point 20 :  -0.2000 0.0667 0.0000  plane waves:     337
 k-point 21 :  -0.1333 0.0667 0.0000  plane waves:     332
 k-point 22 :  -0.0667 0.0667 0.0000  plane waves:     333
 k-point 23 :   0.1333 0.1333 0.0000  plane waves:     331
 k-point 24 :   0.2000 0.1333 0.0000  plane waves:     336
 k-point 25 :   0.2667 0.1333 0.0000  plane waves:     334
 k-point 26 :   0.3333 0.1333 0.0000  plane waves:     336
 k-point 27 :   0.4000 0.1333 0.0000  plane waves:     339
 k-point 28 :   0.4667 0.1333 0.0000  plane waves:     339
 k-point 29 :  -0.4667 0.1333 0.0000  plane waves:     345
 k-point 30 :  -0.4000 0.1333 0.0000  plane waves:     341
 k-point 31 :  -0.3333 0.1333 0.0000  plane waves:     342
 k-point 32 :  -0.2667 0.1333 0.0000  plane waves:     339
 k-point 33 :  -0.2000 0.1333 0.0000  plane waves:     335
 k-point 34 :  -0.1333 0.1333 0.0000  plane waves:     333
 k-point 35 :   0.2000 0.2000 0.0000  plane waves:     343
 k-point 36 :   0.2667 0.2000 0.0000  plane waves:     342
 k-point 37 :   0.3333 0.2000 0.0000  plane waves:     336
 k-point 38 :   0.4000 0.2000 0.0000  plane waves:     339
 k-point 39 :   0.4667 0.2000 0.0000  plane waves:     340
 k-point 40 :  -0.4667 0.2000 0.0000  plane waves:     349
 k-point 41 :  -0.4000 0.2000 0.0000  plane waves:     348
 k-point 42 :  -0.3333 0.2000 0.0000  plane waves:     341
 k-point 43 :  -0.2667 0.2000 0.0000  plane waves:     337
 k-point 44 :  -0.2000 0.2000 0.0000  plane waves:     333
 k-point 45 :   0.2667 0.2667 0.0000  plane waves:     343
 k-point 46 :   0.3333 0.2667 0.0000  plane waves:     333
 k-point 47 :   0.4000 0.2667 0.0000  plane waves:     335
 k-point 48 :   0.4667 0.2667 0.0000  plane waves:     338
 k-point 49 :  -0.4667 0.2667 0.0000  plane waves:     344
 k-point 50 :  -0.4000 0.2667 0.0000  plane waves:     343
 k-point 51 :  -0.3333 0.2667 0.0000  plane waves:     341
 k-point 52 :  -0.2667 0.2667 0.0000  plane waves:     339
 k-point 53 :   0.3333 0.3333 0.0000  plane waves:     335
 k-point 54 :   0.4000 0.3333 0.0000  plane waves:     333
 k-point 55 :   0.4667 0.3333 0.0000  plane waves:     335
 k-point 56 :  -0.4667 0.3333 0.0000  plane waves:     343
 k-point 57 :  -0.4000 0.3333 0.0000  plane waves:     343
 k-point 58 :  -0.3333 0.3333 0.0000  plane waves:     347
 k-point 59 :   0.4000 0.4000 0.0000  plane waves:     335
 k-point 60 :   0.4667 0.4000 0.0000  plane waves:     339
[...]
 k-point 85 :  -0.4000 0.2667 0.0667  plane waves:     344
 k-point 86 :  -0.3333 0.2667 0.0667  plane waves:     343
 k-point 87 :  -0.2667 0.2667 0.0667  plane waves:     341
 k-point 88 :  -0.2000 0.2667 0.0667  plane waves:     339
 k-point 89 :   0.4000 0.3333 0.0667  plane waves:     334
 k-point 90 :   0.4667 0.3333 0.0667  plane waves:     335
 k-point 91 :  -0.4667 0.3333 0.0667  plane waves:     341
 k-point 92 :  -0.4000 0.3333 0.0667  plane waves:     344
 k-point 93 :  -0.3333 0.3333 0.0667  plane waves:     342
 k-point 94 :  -0.2667 0.3333 0.0667  plane waves:     339
 k-point 95 :   0.4667 0.4000 0.0667  plane waves:     334
 k-point 96 :  -0.4667 0.4000 0.0667  plane waves:     339
 k-point 97 :  -0.4000 0.4000 0.0667  plane waves:     346
 k-point 98 :  -0.3333 0.4000 0.0667  plane waves:     342
 k-point 99 :  -0.4667 0.4667 0.0667  plane waves:     342
 k-point ** :  -0.4000 0.4667 0.0667  plane waves:     343
 k-point ** :   0.4000 0.2667 0.1333  plane waves:     336
 k-point ** :   0.4667 0.2667 0.1333  plane waves:     337
 k-point ** :  -0.4667 0.2667 0.1333  plane waves:     338
 k-point ** :  -0.4000 0.2667 0.1333  plane waves:     342
 k-point ** :   0.4667 0.3333 0.1333  plane waves:     336
 k-point ** :  -0.4667 0.3333 0.1333  plane waves:     339
 k-point ** :  -0.4000 0.3333 0.1333  plane waves:     342
 k-point ** :  -0.3333 0.3333 0.1333  plane waves:     343
 k-point ** :  -0.2667 0.3333 0.1333  plane waves:     343
 k-point ** :  -0.2000 0.3333 0.1333  plane waves:     339
 k-point ** :  -0.4667 0.4000 0.1333  plane waves:     344
 k-point ** :  -0.4000 0.4000 0.1333  plane waves:     342
 k-point ** :  -0.3333 0.4000 0.1333  plane waves:     346
 k-point ** :  -0.2667 0.4000 0.1333  plane waves:     342
 k-point ** :  -0.4000 0.4667 0.1333  plane waves:     342
 k-point ** :  -0.3333 0.4667 0.1333  plane waves:     345
 k-point ** :  -0.4000 0.4000 0.2000  plane waves:     343
 k-point ** :  -0.3333 0.4000 0.2000  plane waves:     341
 k-point ** :  -0.3333 0.4667 0.2000  plane waves:     342
 k-point ** :  -0.2667 0.4667 0.2000  plane waves:     346

 maximum and minimum number of plane-waves per node :        95       78

 maximum number of plane-waves:       349
 maximum index in each direction:
   IXMAX=    5   IYMAX=    4   IZMAX=    4
   IXMIN=   -5   IYMIN=   -5   IZMIN=   -5

 WARNING: aliasing errors must be expected set NGX to  22 to avoid them
 NGY is ok and might be reduce to  20
 NGZ is ok and might be reduce to  20
 aliasing errors are usually negligible using standard VASP settings
 and one can safely disregard these warnings

 parallel 3D FFT for wavefunctions:
    minimum data exchange during FFTs selected (reduces bandwidth)
 parallel 3D FFT for charge:
    minimum data exchange during FFTs selected (reduces bandwidth)

 FFT grid for exact exchange (Hartree Fock)
  NGX = 16; NGY = 16; NGZ = 16

 Radii for the augmentation spheres in the non-local exchange
 for species   1 augmentation radius   1.339 (default was   1.071)
       energy cutoff for augmentation   1600.0
 for species   2 augmentation radius   0.902 (default was   0.722)
       energy cutoff for augmentation   1600.0

 real space projection operators:
  max/ min on nodes  :        118.93        116.41

 Maximum index for augmentation-charges in exchange          535
  SETUP_FOCK is finished

 initial charge density was supplied:
 charge density of overlapping atoms calculated
 number of electron       8.0000000 magnetization
 keeping initial charge density in first step

 Maximum index for augmentation-charges          745 (set IRDMAX)

 FEWALD executed in parallel

----------------------------------------- Iteration    1(   1)  ---------------------------------------

 BZINTS: Fermi energy: 32.449121;  8.000000 electrons
         Band energy: 190.306184;  BLOECHL correction: -0.861376

 eigenvalue-minimisations  :  3560
 total energy-change (2. order) : 0.2055034E+03  (-0.1600893E+04)
 number of electron       8.0000000 magnetization
 augmentation part        8.0000000 magnetization

 Free energy of the ion-electron system (eV)
  alpha Z        PSCENC =        19.54441401
  Ewald energy   TEWEN  =      -358.13702104
  -Hartree energ DENC   =      -121.08767182
  -exchange      EXHF   =         0.00000000
  -V(xc)+E(xc)   XCENC  =       -15.50491503
  PAW double counting   =       406.12567499     -367.47470963
  entropy T*S    EENTRO =         0.00000000
  eigenvalues    EBANDS =       190.30618407
  atomic energy  EATOM  =       451.73140136
  Solvation  Ediel_sol  =         0.00000000
  free energy    TOTEN  =       205.50335691 eV

  energy without entropy =      205.50335691  energy(sigma->0) =      205.50335691
  exchange ACFDT corr.  =         0.00000000  see jH, gK, PRB 81, 115126

[...]

 eigenvalue-minimisations  :  3780
 total energy-change (2. order) :-0.1941677E+03  (-0.1927668E+03)
 number of electron       8.0000000 magnetization
 augmentation part        8.0000000 magnetization

[...]

 eigenvalue-minimisations  :  2670
 total energy-change (2. order) :-0.5034156E-01  (-0.1246696E+00)
 number of electron       7.9999991 magnetization
 augmentation part        0.6620922 magnetization

[...]

----------------------------------------- Iteration    1(  16)  ---------------------------------------

[...]

 eigenvalue-minimisations  :  2570
 total energy-change (2. order) : 0.6924893E-07  (-0.2264352E-06)
 number of electron       7.9999989 magnetization
 augmentation part        0.6686455 magnetization

 Free energy of the ion-electron system (eV)
  alpha Z        PSCENC =        19.54441401
  Ewald energy   TEWEN  =      -358.13702104
  -Hartree energ DENC   =      -141.78196985
  -exchange      EXHF   =        25.27596764
  -V(xc)+E(xc)   XCENC  =       -14.29280211
  PAW double counting   =       567.58621961     -529.11665967
  entropy T*S    EENTRO =         0.00000000
  eigenvalues    EBANDS =       -35.62431603
  atomic energy  EATOM  =       451.73140136
  Solvation  Ediel_sol  =         0.00000000
  free energy    TOTEN  =       -14.81476609 eV

  energy without entropy =      -14.81476609  energy(sigma->0) =      -14.81476609
  exchange ACFDT corr.  =        -0.00000000  see jH, gK, PRB 81, 115126

 average (electrostatic) potential at core
  the test charge radii are     1.0714  0.7215
  (the norm of the test charge is              1.0000)
       1 -30.3703       2 -63.0618

 E-fermi :   1.5636     XC(G=0):  -8.6923     alpha+bet :-13.1547

 k-point     1 :       0.0000    0.0000    0.0000
  band No.  band energies     occupation
      1     -17.3099      2.00000
      2       1.5322      2.00000
      3       1.5322      2.00000
      4       1.5322      2.00000
      5       8.7141      0.00000
      6      20.0799      0.00000
      7      20.0799      0.00000
      8      20.0799      0.00000
      9      23.9742      0.00000
     10      25.9527      0.00000

[...]

 k-point   120 :      -0.2667    0.4667    0.2000
  band No.  band energies     occupation
      1     -15.6425      2.00000
      2      -1.7787      2.00000
      3      -1.5756      2.00000
      4      -0.2961      2.00000
      5      15.6607      0.00000
      6      16.2078      0.00000
      7      16.5252      0.00000
      8      20.1099      0.00000
      9      26.0220      0.00000
     10      26.9867      0.00000

 soft charge-density along one line, spin component           1
         0         1         2         3         4         5         6         7         8         9
 total charge-density along one line

------------------------ aborting loop because EDIFF is reached ----------------------------------------

 VOLUME and BASIS-vectors are now :
  energy-cutoff  :      400.00
  volume of cell :       18.69
      direct lattice vectors                 reciprocal lattice vectors
     2.106350000  2.106350000  0.000000000     0.237377454  0.237377454 -0.237377454
     0.000000000  2.106350000  2.106350000    -0.237377454  0.237377454  0.237377454
     2.106350000  0.000000000  2.106350000     0.237377454 -0.237377454  0.237377454

  length of vectors
     2.978828737  2.978828737  2.978828737     0.411149811  0.411149811  0.411149811

 FORCES acting on ions
    electron-ion (+dipol)            ewald-force                    non-local-force                 convergence-correction
   -.296E-11 0.116E-11 0.712E-11   -.840E-15 -.574E-15 -.176E-15   -.646E-26 0.000E+00 -.646E-26   -.321E-09 -.208E-09 -.167E-09
   -.658E-10 0.246E-10 0.163E-09   -.429E-15 0.277E-15 0.270E-15   0.517E-25 -.258E-25 0.517E-25   0.445E-08 0.612E-08 0.611E-08
   -.688E-10 0.257E-10 0.170E-09   -.127E-14 -.297E-15 0.943E-16   0.452E-25 -.258E-25 0.452E-25   0.413E-08 0.591E-08 0.595E-08

 POSITION                                       TOTAL-FORCE (eV/Angst)
      0.00000      0.00000      0.00000        -0.000000      0.000000      0.000000
      2.10635      2.10635      2.10635         0.000000     -0.000000     -0.000000
    total drift:                                0.000000      0.000000      0.000000

  FREE ENERGIE OF THE ION-ELECTRON SYSTEM (eV)
  free  energy   TOTEN  =       -14.81476609 eV

  energy  without entropy=      -14.81476609  energy(sigma->0) =      -14.81476609

 BZINTS: Fermi energy:  1.563595;  8.000000 electrons
         Band energy: -35.624316;  BLOECHL correction:  0.000000